maximize
  obj: 17 x0_5 + 10 x0_7 + 16 x0_6 + 14 x0_8 + 8 x0_3 + 17 x1_6 + 17 x1_5 + 11 x1_0 + 6 x1_4 + 8 x1_7 + 8 x2_4 + 7 x2_0 + 6 x2_7 + 5 x2_2 + 7 x2_8 + 16 x3_6 + 15 x3_5 + 11 x3_7 + 11 x3_0 + 12 x3_8 + 15 x4_1 + 14 x4_6 + 12 x4_7 + 12 x4_5 + 11 x4_0 + 16 x5_0 + 14 x5_7 + 12 x5_4 + 13 x5_2 + 10 x5_8 + 13 x6_5 + 16 x6_7 + 11 x6_6 + 10 x6_2 + 9 x6_8 + 18 x7_7 + 17 x7_0 + 10 x7_4 + 11 x7_2 + 8 x7_8 + 8 x8_5 + 8 x8_7 + 8 x8_6 + 6 x8_2 + 4 x8_8 + 17 x9_2 + 7 x9_6 + 8 x9_5 + 7 x9_8 + 13 x9_3 + 9 x10_6 + 17 x10_4 + 9 x10_0 + 6 x10_8 + 6 x10_3

subject to
  c0: x0_5 + x0_7 + x0_6 + x0_8 + x0_3 = 1
  c1: x1_6 + x1_5 + x1_0 + x1_4 + x1_7 = 1
  c2: x2_4 + x2_0 + x2_7 + x2_2 + x2_8 = 1
  c3: x3_6 + x3_5 + x3_7 + x3_0 + x3_8 = 1
  c4: x4_1 + x4_6 + x4_7 + x4_5 + x4_0 = 1
  c5: x5_0 + x5_7 + x5_4 + x5_2 + x5_8 = 1
  c6: x6_5 + x6_7 + x6_6 + x6_2 + x6_8 = 1
  c7: x7_7 + x7_0 + x7_4 + x7_2 + x7_8 = 1
  c8: x8_5 + x8_7 + x8_6 + x8_2 + x8_8 = 1
  c9: x9_2 + x9_6 + x9_5 + x9_8 + x9_3 = 1
  c10: x10_6 + x10_4 + x10_0 + x10_8 + x10_3 = 1
  c11: x1_0 + x2_0 + x3_0 + x4_0 + x5_0 + x7_0 + x10_0 <= 2
  c12: x4_1 <= 1
  c13: x2_2 + x5_2 + x6_2 + x7_2 + x8_2 + x9_2 <= 1
  c14: x0_3 + x9_3 + x10_3 <= 1
  c15: x1_4 + x2_4 + x5_4 + x7_4 + x10_4 <= 1
  c16: x0_5 + x1_5 + x3_5 + x4_5 + x6_5 + x8_5 + x9_5 <= 1
  c17: x0_6 + x1_6 + x3_6 + x4_6 + x6_6 + x8_6 + x9_6 + x10_6 <= 1
  c18: x0_7 + x1_7 + x2_7 + x3_7 + x4_7 + x5_7 + x6_7 + x7_7 + x8_7 <= 1
  c19: x0_8 + x2_8 + x3_8 + x5_8 + x6_8 + x7_8 + x8_8 + x9_8 + x10_8 <= 2

Binary
  x0_5
  x0_7
  x0_6
  x0_8
  x0_3
  x1_6
  x1_5
  x1_0
  x1_4
  x1_7
  x2_4
  x2_0
  x2_7
  x2_2
  x2_8
  x3_6
  x3_5
  x3_7
  x3_0
  x3_8
  x4_1
  x4_6
  x4_7
  x4_5
  x4_0
  x5_0
  x5_7
  x5_4
  x5_2
  x5_8
  x6_5
  x6_7
  x6_6
  x6_2
  x6_8
  x7_7
  x7_0
  x7_4
  x7_2
  x7_8
  x8_5
  x8_7
  x8_6
  x8_2
  x8_8
  x9_2
  x9_6
  x9_5
  x9_8
  x9_3
  x10_6
  x10_4
  x10_0
  x10_8
  x10_3
end
